47
100 50 
100 50 
98 51 
97 53 
97 53 
96 51 
94 48 
92 57 
92 48 
91 59 
91 59 
90 60 
90 48 
90 47 
88 62 
85 65 
84 66 
84 66 
84 66 
83 67 
81 69 
81 69 
80 70 
80 68 
80 68 
80 67 
79 67 
79 67 
79 64 
76 74 
76 73 
75 75 
64 64 22 
64 64 21 
62 61 27 
61 46 42 
46 46 45 
45 44 42 
41 41 40 28 
38 38 38 36 
37 37 37 37 
36 35 35 34 
34 33 32 32 
32 31 31 30 26 
29 29 29 29 28 
26 25 24 24 23 23 
21 20 
